problem_generation/data/GISP/train/er_n=63_m=1148_p=0.60_SET2_setparam=100.00_alpha=0.50_624.lp
maximize
OBJ:100x0 + 100x1 + 100x2 + 100x3 + 100x4 + 100x5 + 100x6 + 100x7 + 100x8 + 100x9 + 100x10 + 100x11 + 100x12 + 100x13 + 100x14 + 100x15 + 100x16 + 100x17 + 100x18 + 100x19 + 100x20 + 100x21 + 100x22 + 100x23 + 100x24 + 100x25 + 100x26 + 100x27 + 100x28 + 100x29 + 100x30 + 100x31 + 100x32 + 100x33 + 100x34 + 100x35 + 100x36 + 100x37 + 100x38 + 100x39 + 100x40 + 100x41 + 100x42 + 100x43 + 100x44 + 100x45 + 100x46 + 100x47 + 100x48 + 100x49 + 100x50 + 100x51 + 100x52 + 100x53 + 100x54 + 100x55 + 100x56 + 100x57 + 100x58 + 100x59 + 100x60 + 100x61 + 100x62 - y15_30 - y26_30 - y47_62 - y15_39 - y0_5 - y8_18 - y40_50 - y21_46 - y11_23 - y10_36 - y33_38 - y2_32 - y10_45 - y44_47 - y2_41 - y33_56 - y44_56 - y25_52 - y3_15 - y14_24 - y43_60 - y3_33 - y14_33 - y36_48 - y15_25 - y7_21 - y36_57 - y7_30 - y18_30 - y5_60 - y28_62 - y48_49 - y48_58 - y6_52 - y29_54 - y40_54 - y6_61 - y10_31 - y2_27 - y25_29 - y10_49 - y10_58 - y51_59 - y3_19 - y22_32 - y24_60 - y35_60 - y3_37 - y14_37 - y16_56 - y28_39 - y36_52 - y47_52 - y17_48 - y9_44 - y5_55 - y29_40 - y10_17 - y10_44 - y3_14 - y43_50 - y24_46 - y43_59 - y13_55 - y24_55 - y14_32 - y35_55 - y36_56 - y28_52 - y9_57 - y50_58 - y21_31 - y29_44 - y21_40 - y39_48 - y39_57 - y20_53 - y10_39 - y12_58 - y32_36 - y13_32 - y43_45 - y35_41 - y3_18 - y24_50 - y1_57 - y13_59 - y24_59 - y16_55 - y28_29 - y36_42 - y9_25 - y5_36 - y17_38 - y36_51 - y9_34 - y28_47 - y9_52 - y50_53 - y21_26 - y50_62 - y39_43 - y2_3 - y10_16 - y20_48 - y10_25 - y12_44 - y20_57 - y54_59 - y23_53 - y12_62 - y13_27 - y24_27 - y32_40 - y51_53 - y13_36 - y32_49 - y16_32 - y13_45 - y32_58 - y13_54 - y17_24 - y9_20 - y5_31 - y28_33 - y17_42 - y9_47 - y6_23 - y42_44 - y42_53 - y21_30 - y11_56 - y23_39 - y12_48 - y31_61 - y12_57 - y4_53 - y32_44 - y1_38 - y13_49 - y35_49 - y16_45 - y1_56 - y17_28 - y9_24 - y6_9 - y30_46 - y20_29 - y11_60 - y12_25 - y23_25 - y39_42 - y4_30 - y23_43 - y4_39 - y1_15 - y53_62 - y24_35 - y1_42 - y24_44 - y5_12 - y46_50 - y5_21 - y17_23 - y9_19 - y15_53 - y26_53 - y38_55 - y27_36 - y6_13 - y8_32 - y19_32 - y19_41 - y27_54 - y11_37 - y42_52 - y30_59 - y0_55 - y4_34 - y1_10 - y4_43 - y12_56 - y1_19 - y23_56 - y34_53 - y45_53 - y24_30 - y45_62 - y37_58 - y16_35 - y5_7 - y38_41 - y5_16 - y46_54 - y38_50 - y26_57 - y27_31 - y7_62 - y8_27 - y18_62 - y8_36 - y50_51 - y0_41 - y11_59 - y12_24 - y13_16 - y34_48 - y16_21 - y34_57 - y3_60 - y5_11 - y38_45 - y46_58 - y38_54 - y49_54 - y15_61 - y7_57 - y18_57 - y19_22 - y0_18 - y8_49 - y0_45 - y12_19 - y41_55 - y52_55 - y4_15 - y44_60 - y4_33 - y34_43 - y22_59 - y34_61 - y56_61 - y15_38 - y26_38 - y18_34 - y15_47 - y7_43 - y26_56 - y19_26 - y0_22 - y8_35 - y19_44 - y30_44 - y0_40 - y11_49 - y41_50 - y33_46 - y44_55 - y25_60 - y22_36 - y45_47 - y14_50 - y37_52 - y37_61 - y15_24 - y18_20 - y18_29 - y26_42 - y18_38 - y52_54 - y4_14 - y10_48 - y25_55 - y22_31 - y3_27 - y14_27 - y34_42 - y37_38 - y37_47 - y22_58 - y14_54 - y7_33 - y7_42 - y18_42 - y0_3 - y8_16 - y11_12 - y29_48 - y19_25 - y21_44 - y11_30 - y21_62 - y25_32 - y4_9 - y44_54 - y2_48 - y3_13 - y25_50 - y25_59 - y3_40 - y37_42 - y7_10 - y55_59 - y7_19 - y7_28 - y17_60 - y28_60 - y9_56 - y48_56 - y6_50 - y29_52 - y40_61 - y21_57 - y2_25 - y2_34 - y10_47 - y44_49 - y2_43 - y3_8 - y51_57 - y14_26 - y14_35 - y15_18 - y7_14 - y36_59 - y9_42 - y6_27 - y0_2 - y6_36 - y29_47 - y6_54 - y40_56 - y2_20 - y54_58 - y10_33 - y2_29 - y25_31 - y10_42 - y10_51 - y32_48 - y22_25 - y32_57 - y35_53 - y1_60 - y35_62 - y28_32 - y36_45 - y55_58 - y36_54 - y9_37 - y5_48 - y17_50 - y28_50 - y5_57 - y17_59 - y9_55 - y21_29 - y6_40 - y29_42 - y6_49 - y10_19 - y31_60 - y35_48 - y32_61 - y17_18 - y17_27 - y28_36 - y36_49 - y36_58 - y9_41 - y47_58 - y5_52 - y17_54 - y9_50 - y6_44 - y12_51 - y2_28 - y32_47 - y43_56 - y1_50 - y16_57 - y9_18 - y5_29 - y17_31 - y28_40 - y9_36 - y6_12 - y5_56 - y50_55 - y6_30 - y8_58 - y42_60 - y20_41 - y10_18 - y20_50 - y12_46 - y54_61 - y4_42 - y12_55 - y13_20 - y4_51 - y1_27 - y24_29 - y24_38 - y16_34 - y1_45 - y24_47 - y16_43 - y9_13 - y17_26 - y57_62 - y9_22 - y5_42 - y28_44 - y5_51 - y6_16 - y30_53 - y19_62 - y30_62 - y39_49 - y23_32 - y2_9 - y20_45 - y31_45 - y23_41 - y39_58 - y20_54 - y54_56 - y23_50 - y1_22 - y32_37 - y16_20 - y13_42 - y1_49 - y24_51 - y5_10 - y49_53 - y5_28 - y28_30 - y5_37 - y6_11 - y19_39 - y27_52 - y8_57 - y11_53 - y20_31 - y12_27 - y2_4 - y20_49 - y31_49 - y31_58 - y4_41 - y12_54 - y1_17 - y1_26 - y13_28 - y34_60 - y13_37 - y5_14 - y46_52 - y15_46 - y38_48 - y57_61 - y9_21 - y26_55 - y7_60 - y8_25 - y8_34 - y30_34 - y0_30 - y8_43 - y30_43 - y42_45 - y42_54 - y0_48 - y11_48 - y19_61 - y30_61 - y0_57 - y11_57 - y31_35 - y23_31 - y12_40 - y23_40 - y4_45 - y45_46 - y13_23 - y4_54 - y16_19 - y34_55 - y45_55 - y37_51 - y16_28 - y5_9 - y15_59 - y26_59 - y7_55 - y19_29 - y0_25 - y19_38 - y30_47 - y42_49 - y11_52 - y12_17 - y20_30 - y12_35 - y34_41 - y1_16 - y22_48 - y45_50 - y37_46 - y22_57 - y34_59 - y45_59 - y3_53 - y56_59 - y14_62 - y7_32 - y38_47 - y18_41 - y26_54 - y38_56 - y0_20 - y11_20 - y8_33 - y30_33 - y27_46 - y30_42 - y41_48 - y20_25 - y4_8 - y41_57 - y23_30 - y25_49 - y33_62 - y44_62 - y34_36 - y1_11 - y34_45 - y53_58 - y37_41 - y3_48 - y37_50 - y22_61 - y14_57 - y15_22 - y26_49 - y8_28 - y11_24 - y19_37 - y11_33 - y10_46 - y22_29 - y34_40 - y14_34 - y22_47 - y34_49 - y14_43 - y37_45 - y22_56 - y56_58 - y3_52 - y14_52 - y37_54 - y3_61 - y7_22 - y15_35 - y18_40 - y0_10 - y40_46 - y19_23 - y29_55 - y0_28 - y11_28 - y41_56 - y33_52 - y2_46 - y22_24 - y34_35 - y3_29 - y34_44 - y37_40 - y22_51 - y3_47 - y14_56
 Subject to
C1: x0+x1 <=1 
C2: x0+x2-y0_2 <=1 
C3: x0+x3-y0_3 <=1 
C4: x0+x4 <=1 
C5: x0+x5-y0_5 <=1 
C6: x0+x6 <=1 
C7: x0+x7 <=1 
C8: x0+x10-y0_10 <=1 
C9: x0+x17 <=1 
C10: x0+x18-y0_18 <=1 
C11: x0+x20-y0_20 <=1 
C12: x0+x22-y0_22 <=1 
C13: x0+x25-y0_25 <=1 
C14: x0+x26 <=1 
C15: x0+x28-y0_28 <=1 
C16: x0+x30-y0_30 <=1 
C17: x0+x36 <=1 
C18: x0+x37 <=1 
C19: x0+x38 <=1 
C20: x0+x39 <=1 
C21: x0+x40-y0_40 <=1 
C22: x0+x41-y0_41 <=1 
C23: x0+x42 <=1 
C24: x0+x43 <=1 
C25: x0+x44 <=1 
C26: x0+x45-y0_45 <=1 
C27: x0+x48-y0_48 <=1 
C28: x0+x51 <=1 
C29: x0+x54 <=1 
C30: x0+x55-y0_55 <=1 
C31: x0+x57-y0_57 <=1 
C32: x0+x61 <=1 
C33: x0+x62 <=1 
C34: x1+x8 <=1 
C35: x1+x9 <=1 
C36: x1+x10-y1_10 <=1 
C37: x1+x11-y1_11 <=1 
C38: x1+x13 <=1 
C39: x1+x14 <=1 
C40: x1+x15-y1_15 <=1 
C41: x1+x16-y1_16 <=1 
C42: x1+x17-y1_17 <=1 
C43: x1+x19-y1_19 <=1 
C44: x1+x22-y1_22 <=1 
C45: x1+x24 <=1 
C46: x1+x26-y1_26 <=1 
C47: x1+x27-y1_27 <=1 
C48: x1+x28 <=1 
C49: x1+x29 <=1 
C50: x1+x34 <=1 
C51: x1+x36 <=1 
C52: x1+x38-y1_38 <=1 
C53: x1+x42-y1_42 <=1 
C54: x1+x45-y1_45 <=1 
C55: x1+x47 <=1 
C56: x1+x49-y1_49 <=1 
C57: x1+x50-y1_50 <=1 
C58: x1+x52 <=1 
C59: x1+x54 <=1 
C60: x1+x56-y1_56 <=1 
C61: x1+x57-y1_57 <=1 
C62: x1+x58 <=1 
C63: x1+x59 <=1 
C64: x1+x60-y1_60 <=1 
C65: x1+x61 <=1 
C66: x1+x62 <=1 
C67: x2+x3-y2_3 <=1 
C68: x2+x4-y2_4 <=1 
C69: x2+x9-y2_9 <=1 
C70: x2+x14 <=1 
C71: x2+x15 <=1 
C72: x2+x20-y2_20 <=1 
C73: x2+x21 <=1 
C74: x2+x23 <=1 
C75: x2+x24 <=1 
C76: x2+x25-y2_25 <=1 
C77: x2+x26 <=1 
C78: x2+x27-y2_27 <=1 
C79: x2+x28-y2_28 <=1 
C80: x2+x29-y2_29 <=1 
C81: x2+x32-y2_32 <=1 
C82: x2+x34-y2_34 <=1 
C83: x2+x37 <=1 
C84: x2+x40 <=1 
C85: x2+x41-y2_41 <=1 
C86: x2+x42 <=1 
C87: x2+x43-y2_43 <=1 
C88: x2+x46-y2_46 <=1 
C89: x2+x48-y2_48 <=1 
C90: x2+x51 <=1 
C91: x2+x53 <=1 
C92: x2+x54 <=1 
C93: x2+x56 <=1 
C94: x2+x58 <=1 
C95: x2+x59 <=1 
C96: x2+x61 <=1 
C97: x3+x5 <=1 
C98: x3+x8-y3_8 <=1 
C99: x3+x9 <=1 
C100: x3+x11 <=1 
C101: x3+x12 <=1 
C102: x3+x13-y3_13 <=1 
C103: x3+x14-y3_14 <=1 
C104: x3+x15-y3_15 <=1 
C105: x3+x18-y3_18 <=1 
C106: x3+x19-y3_19 <=1 
C107: x3+x21 <=1 
C108: x3+x23 <=1 
C109: x3+x25 <=1 
C110: x3+x27-y3_27 <=1 
C111: x3+x29-y3_29 <=1 
C112: x3+x30 <=1 
C113: x3+x31 <=1 
C114: x3+x33-y3_33 <=1 
C115: x3+x36 <=1 
C116: x3+x37-y3_37 <=1 
C117: x3+x38 <=1 
C118: x3+x40-y3_40 <=1 
C119: x3+x42 <=1 
C120: x3+x45 <=1 
C121: x3+x46 <=1 
C122: x3+x47-y3_47 <=1 
C123: x3+x48-y3_48 <=1 
C124: x3+x51 <=1 
C125: x3+x52-y3_52 <=1 
C126: x3+x53-y3_53 <=1 
C127: x3+x54 <=1 
C128: x3+x55 <=1 
C129: x3+x57 <=1 
C130: x3+x58 <=1 
C131: x3+x59 <=1 
C132: x3+x60-y3_60 <=1 
C133: x3+x61-y3_61 <=1 
C134: x3+x62 <=1 
C135: x4+x6 <=1 
C136: x4+x7 <=1 
C137: x4+x8-y4_8 <=1 
C138: x4+x9-y4_9 <=1 
C139: x4+x13 <=1 
C140: x4+x14-y4_14 <=1 
C141: x4+x15-y4_15 <=1 
C142: x4+x16 <=1 
C143: x4+x19 <=1 
C144: x4+x20 <=1 
C145: x4+x21 <=1 
C146: x4+x22 <=1 
C147: x4+x24 <=1 
C148: x4+x25 <=1 
C149: x4+x26 <=1 
C150: x4+x27 <=1 
C151: x4+x30-y4_30 <=1 
C152: x4+x33-y4_33 <=1 
C153: x4+x34-y4_34 <=1 
C154: x4+x35 <=1 
C155: x4+x37 <=1 
C156: x4+x39-y4_39 <=1 
C157: x4+x40 <=1 
C158: x4+x41-y4_41 <=1 
C159: x4+x42-y4_42 <=1 
C160: x4+x43-y4_43 <=1 
C161: x4+x44 <=1 
C162: x4+x45-y4_45 <=1 
C163: x4+x50 <=1 
C164: x4+x51-y4_51 <=1 
C165: x4+x53-y4_53 <=1 
C166: x4+x54-y4_54 <=1 
C167: x4+x59 <=1 
C168: x4+x62 <=1 
C169: x5+x6 <=1 
C170: x5+x7-y5_7 <=1 
C171: x5+x9-y5_9 <=1 
C172: x5+x10-y5_10 <=1 
C173: x5+x11-y5_11 <=1 
C174: x5+x12-y5_12 <=1 
C175: x5+x13 <=1 
C176: x5+x14-y5_14 <=1 
C177: x5+x15 <=1 
C178: x5+x16-y5_16 <=1 
C179: x5+x18 <=1 
C180: x5+x19 <=1 
C181: x5+x20 <=1 
C182: x5+x21-y5_21 <=1 
C183: x5+x28-y5_28 <=1 
C184: x5+x29-y5_29 <=1 
C185: x5+x31-y5_31 <=1 
C186: x5+x32 <=1 
C187: x5+x33 <=1 
C188: x5+x36-y5_36 <=1 
C189: x5+x37-y5_37 <=1 
C190: x5+x38 <=1 
C191: x5+x41 <=1 
C192: x5+x42-y5_42 <=1 
C193: x5+x45 <=1 
C194: x5+x47 <=1 
C195: x5+x48-y5_48 <=1 
C196: x5+x49 <=1 
C197: x5+x50 <=1 
C198: x5+x51-y5_51 <=1 
C199: x5+x52-y5_52 <=1 
C200: x5+x54 <=1 
C201: x5+x55-y5_55 <=1 
C202: x5+x56-y5_56 <=1 
C203: x5+x57-y5_57 <=1 
C204: x5+x59 <=1 
C205: x5+x60-y5_60 <=1 
C206: x5+x62 <=1 
C207: x6+x9-y6_9 <=1 
C208: x6+x11-y6_11 <=1 
C209: x6+x12-y6_12 <=1 
C210: x6+x13-y6_13 <=1 
C211: x6+x15 <=1 
C212: x6+x16-y6_16 <=1 
C213: x6+x20 <=1 
C214: x6+x23-y6_23 <=1 
C215: x6+x26 <=1 
C216: x6+x27-y6_27 <=1 
C217: x6+x28 <=1 
C218: x6+x29 <=1 
C219: x6+x30-y6_30 <=1 
C220: x6+x33 <=1 
C221: x6+x35 <=1 
C222: x6+x36-y6_36 <=1 
C223: x6+x39 <=1 
C224: x6+x40-y6_40 <=1 
C225: x6+x43 <=1 
C226: x6+x44-y6_44 <=1 
C227: x6+x46 <=1 
C228: x6+x47 <=1 
C229: x6+x48 <=1 
C230: x6+x49-y6_49 <=1 
C231: x6+x50-y6_50 <=1 
C232: x6+x52-y6_52 <=1 
C233: x6+x54-y6_54 <=1 
C234: x6+x55 <=1 
C235: x6+x57 <=1 
C236: x6+x60 <=1 
C237: x6+x61-y6_61 <=1 
C238: x7+x8 <=1 
C239: x7+x10-y7_10 <=1 
C240: x7+x12 <=1 
C241: x7+x14-y7_14 <=1 
C242: x7+x17 <=1 
C243: x7+x18 <=1 
C244: x7+x19-y7_19 <=1 
C245: x7+x20 <=1 
C246: x7+x21-y7_21 <=1 
C247: x7+x22-y7_22 <=1 
C248: x7+x24 <=1 
C249: x7+x26 <=1 
C250: x7+x28-y7_28 <=1 
C251: x7+x30-y7_30 <=1 
C252: x7+x32-y7_32 <=1 
C253: x7+x33-y7_33 <=1 
C254: x7+x34 <=1 
C255: x7+x36 <=1 
C256: x7+x37 <=1 
C257: x7+x38 <=1 
C258: x7+x40 <=1 
C259: x7+x41 <=1 
C260: x7+x42-y7_42 <=1 
C261: x7+x43-y7_43 <=1 
C262: x7+x44 <=1 
C263: x7+x45 <=1 
C264: x7+x48 <=1 
C265: x7+x49 <=1 
C266: x7+x51 <=1 
C267: x7+x53 <=1 
C268: x7+x54 <=1 
C269: x7+x55-y7_55 <=1 
C270: x7+x56 <=1 
C271: x7+x57-y7_57 <=1 
C272: x7+x58 <=1 
C273: x7+x59 <=1 
C274: x7+x60-y7_60 <=1 
C275: x7+x62-y7_62 <=1 
C276: x8+x9 <=1 
C277: x8+x16-y8_16 <=1 
C278: x8+x18-y8_18 <=1 
C279: x8+x24 <=1 
C280: x8+x25-y8_25 <=1 
C281: x8+x27-y8_27 <=1 
C282: x8+x28-y8_28 <=1 
C283: x8+x29 <=1 
C284: x8+x30 <=1 
C285: x8+x32-y8_32 <=1 
C286: x8+x33-y8_33 <=1 
C287: x8+x34-y8_34 <=1 
C288: x8+x35-y8_35 <=1 
C289: x8+x36-y8_36 <=1 
C290: x8+x43-y8_43 <=1 
C291: x8+x44 <=1 
C292: x8+x46 <=1 
C293: x8+x49-y8_49 <=1 
C294: x8+x51 <=1 
C295: x8+x53 <=1 
C296: x8+x54 <=1 
C297: x8+x55 <=1 
C298: x8+x57-y8_57 <=1 
C299: x8+x58-y8_58 <=1 
C300: x8+x59 <=1 
C301: x8+x61 <=1 
C302: x8+x62 <=1 
C303: x9+x13-y9_13 <=1 
C304: x9+x16 <=1 
C305: x9+x18-y9_18 <=1 
C306: x9+x19-y9_19 <=1 
C307: x9+x20-y9_20 <=1 
C308: x9+x21-y9_21 <=1 
C309: x9+x22-y9_22 <=1 
C310: x9+x23 <=1 
C311: x9+x24-y9_24 <=1 
C312: x9+x25-y9_25 <=1 
C313: x9+x26 <=1 
C314: x9+x27 <=1 
C315: x9+x29 <=1 
C316: x9+x31 <=1 
C317: x9+x32 <=1 
C318: x9+x33 <=1 
C319: x9+x34-y9_34 <=1 
C320: x9+x36-y9_36 <=1 
C321: x9+x37-y9_37 <=1 
C322: x9+x40 <=1 
C323: x9+x41-y9_41 <=1 
C324: x9+x42-y9_42 <=1 
C325: x9+x43 <=1 
C326: x9+x44-y9_44 <=1 
C327: x9+x47-y9_47 <=1 
C328: x9+x48 <=1 
C329: x9+x50-y9_50 <=1 
C330: x9+x51 <=1 
C331: x9+x52-y9_52 <=1 
C332: x9+x53 <=1 
C333: x9+x55-y9_55 <=1 
C334: x9+x56-y9_56 <=1 
C335: x9+x57-y9_57 <=1 
C336: x9+x61 <=1 
C337: x10+x11 <=1 
C338: x10+x13 <=1 
C339: x10+x14 <=1 
C340: x10+x16-y10_16 <=1 
C341: x10+x17-y10_17 <=1 
C342: x10+x18-y10_18 <=1 
C343: x10+x19-y10_19 <=1 
C344: x10+x22 <=1 
C345: x10+x25-y10_25 <=1 
C346: x10+x27 <=1 
C347: x10+x28 <=1 
C348: x10+x29 <=1 
C349: x10+x31-y10_31 <=1 
C350: x10+x32 <=1 
C351: x10+x33-y10_33 <=1 
C352: x10+x36-y10_36 <=1 
C353: x10+x39-y10_39 <=1 
C354: x10+x42-y10_42 <=1 
C355: x10+x44-y10_44 <=1 
C356: x10+x45-y10_45 <=1 
C357: x10+x46-y10_46 <=1 
C358: x10+x47-y10_47 <=1 
C359: x10+x48-y10_48 <=1 
C360: x10+x49-y10_49 <=1 
C361: x10+x50 <=1 
C362: x10+x51-y10_51 <=1 
C363: x10+x58-y10_58 <=1 
C364: x10+x60 <=1 
C365: x11+x12-y11_12 <=1 
C366: x11+x13 <=1 
C367: x11+x14 <=1 
C368: x11+x15 <=1 
C369: x11+x20-y11_20 <=1 
C370: x11+x23-y11_23 <=1 
C371: x11+x24-y11_24 <=1 
C372: x11+x25 <=1 
C373: x11+x28-y11_28 <=1 
C374: x11+x29 <=1 
C375: x11+x30-y11_30 <=1 
C376: x11+x33-y11_33 <=1 
C377: x11+x35 <=1 
C378: x11+x36 <=1 
C379: x11+x37-y11_37 <=1 
C380: x11+x38 <=1 
C381: x11+x39 <=1 
C382: x11+x40 <=1 
C383: x11+x44 <=1 
C384: x11+x45 <=1 
C385: x11+x46 <=1 
C386: x11+x48-y11_48 <=1 
C387: x11+x49-y11_49 <=1 
C388: x11+x50 <=1 
C389: x11+x52-y11_52 <=1 
C390: x11+x53-y11_53 <=1 
C391: x11+x54 <=1 
C392: x11+x56-y11_56 <=1 
C393: x11+x57-y11_57 <=1 
C394: x11+x59-y11_59 <=1 
C395: x11+x60-y11_60 <=1 
C396: x11+x62 <=1 
C397: x12+x16 <=1 
C398: x12+x17-y12_17 <=1 
C399: x12+x18 <=1 
C400: x12+x19-y12_19 <=1 
C401: x12+x23 <=1 
C402: x12+x24-y12_24 <=1 
C403: x12+x25-y12_25 <=1 
C404: x12+x26 <=1 
C405: x12+x27-y12_27 <=1 
C406: x12+x28 <=1 
C407: x12+x34 <=1 
C408: x12+x35-y12_35 <=1 
C409: x12+x40-y12_40 <=1 
C410: x12+x41 <=1 
C411: x12+x44-y12_44 <=1 
C412: x12+x45 <=1 
C413: x12+x46-y12_46 <=1 
C414: x12+x47 <=1 
C415: x12+x48-y12_48 <=1 
C416: x12+x51-y12_51 <=1 
C417: x12+x52 <=1 
C418: x12+x54-y12_54 <=1 
C419: x12+x55-y12_55 <=1 
C420: x12+x56-y12_56 <=1 
C421: x12+x57-y12_57 <=1 
C422: x12+x58-y12_58 <=1 
C423: x12+x59 <=1 
C424: x12+x60 <=1 
C425: x12+x61 <=1 
C426: x12+x62-y12_62 <=1 
C427: x13+x16-y13_16 <=1 
C428: x13+x19 <=1 
C429: x13+x20-y13_20 <=1 
C430: x13+x23-y13_23 <=1 
C431: x13+x24 <=1 
C432: x13+x27-y13_27 <=1 
C433: x13+x28-y13_28 <=1 
C434: x13+x31 <=1 
C435: x13+x32-y13_32 <=1 
C436: x13+x34 <=1 
C437: x13+x36-y13_36 <=1 
C438: x13+x37-y13_37 <=1 
C439: x13+x38 <=1 
C440: x13+x42-y13_42 <=1 
C441: x13+x44 <=1 
C442: x13+x45-y13_45 <=1 
C443: x13+x49-y13_49 <=1 
C444: x13+x52 <=1 
C445: x13+x54-y13_54 <=1 
C446: x13+x55-y13_55 <=1 
C447: x13+x56 <=1 
C448: x13+x57 <=1 
C449: x13+x58 <=1 
C450: x13+x59-y13_59 <=1 
C451: x13+x61 <=1 
C452: x13+x62 <=1 
C453: x14+x16 <=1 
C454: x14+x17 <=1 
C455: x14+x18 <=1 
C456: x14+x20 <=1 
C457: x14+x23 <=1 
C458: x14+x24-y14_24 <=1 
C459: x14+x26-y14_26 <=1 
C460: x14+x27-y14_27 <=1 
C461: x14+x32-y14_32 <=1 
C462: x14+x33-y14_33 <=1 
C463: x14+x34-y14_34 <=1 
C464: x14+x35-y14_35 <=1 
C465: x14+x36 <=1 
C466: x14+x37-y14_37 <=1 
C467: x14+x38 <=1 
C468: x14+x43-y14_43 <=1 
C469: x14+x44 <=1 
C470: x14+x49 <=1 
C471: x14+x50-y14_50 <=1 
C472: x14+x52-y14_52 <=1 
C473: x14+x53 <=1 
C474: x14+x54-y14_54 <=1 
C475: x14+x56-y14_56 <=1 
C476: x14+x57-y14_57 <=1 
C477: x14+x58 <=1 
C478: x14+x59 <=1 
C479: x14+x61 <=1 
C480: x14+x62-y14_62 <=1 
C481: x15+x16 <=1 
C482: x15+x18-y15_18 <=1 
C483: x15+x21 <=1 
C484: x15+x22-y15_22 <=1 
C485: x15+x24-y15_24 <=1 
C486: x15+x25-y15_25 <=1 
C487: x15+x28 <=1 
C488: x15+x30-y15_30 <=1 
C489: x15+x33 <=1 
C490: x15+x35-y15_35 <=1 
C491: x15+x36 <=1 
C492: x15+x37 <=1 
C493: x15+x38-y15_38 <=1 
C494: x15+x39-y15_39 <=1 
C495: x15+x40 <=1 
C496: x15+x42 <=1 
C497: x15+x43 <=1 
C498: x15+x46-y15_46 <=1 
C499: x15+x47-y15_47 <=1 
C500: x15+x48 <=1 
C501: x15+x49 <=1 
C502: x15+x50 <=1 
C503: x15+x51 <=1 
C504: x15+x53-y15_53 <=1 
C505: x15+x56 <=1 
C506: x15+x57 <=1 
C507: x15+x58 <=1 
C508: x15+x59-y15_59 <=1 
C509: x15+x61-y15_61 <=1 
C510: x16+x18 <=1 
C511: x16+x19-y16_19 <=1 
C512: x16+x20-y16_20 <=1 
C513: x16+x21-y16_21 <=1 
C514: x16+x25 <=1 
C515: x16+x27 <=1 
C516: x16+x28-y16_28 <=1 
C517: x16+x32-y16_32 <=1 
C518: x16+x34-y16_34 <=1 
C519: x16+x35-y16_35 <=1 
C520: x16+x37 <=1 
C521: x16+x38 <=1 
C522: x16+x41 <=1 
C523: x16+x43-y16_43 <=1 
C524: x16+x44 <=1 
C525: x16+x45-y16_45 <=1 
C526: x16+x47 <=1 
C527: x16+x49 <=1 
C528: x16+x50 <=1 
C529: x16+x55-y16_55 <=1 
C530: x16+x56-y16_56 <=1 
C531: x16+x57-y16_57 <=1 
C532: x16+x59 <=1 
C533: x16+x62 <=1 
C534: x17+x18-y17_18 <=1 
C535: x17+x19 <=1 
C536: x17+x21 <=1 
C537: x17+x22 <=1 
C538: x17+x23-y17_23 <=1 
C539: x17+x24-y17_24 <=1 
C540: x17+x25 <=1 
C541: x17+x26-y17_26 <=1 
C542: x17+x27-y17_27 <=1 
C543: x17+x28-y17_28 <=1 
C544: x17+x31-y17_31 <=1 
C545: x17+x35 <=1 
C546: x17+x38-y17_38 <=1 
C547: x17+x41 <=1 
C548: x17+x42-y17_42 <=1 
C549: x17+x44 <=1 
C550: x17+x46 <=1 
C551: x17+x47 <=1 
C552: x17+x48-y17_48 <=1 
C553: x17+x49 <=1 
C554: x17+x50-y17_50 <=1 
C555: x17+x52 <=1 
C556: x17+x53 <=1 
C557: x17+x54-y17_54 <=1 
C558: x17+x58 <=1 
C559: x17+x59-y17_59 <=1 
C560: x17+x60-y17_60 <=1 
C561: x17+x61 <=1 
C562: x17+x62 <=1 
C563: x18+x20-y18_20 <=1 
C564: x18+x24 <=1 
C565: x18+x25 <=1 
C566: x18+x26 <=1 
C567: x18+x28 <=1 
C568: x18+x29-y18_29 <=1 
C569: x18+x30-y18_30 <=1 
C570: x18+x31 <=1 
C571: x18+x34-y18_34 <=1 
C572: x18+x37 <=1 
C573: x18+x38-y18_38 <=1 
C574: x18+x39 <=1 
C575: x18+x40-y18_40 <=1 
C576: x18+x41-y18_41 <=1 
C577: x18+x42-y18_42 <=1 
C578: x18+x43 <=1 
C579: x18+x44 <=1 
C580: x18+x46 <=1 
C581: x18+x48 <=1 
C582: x18+x51 <=1 
C583: x18+x53 <=1 
C584: x18+x54 <=1 
C585: x18+x57-y18_57 <=1 
C586: x18+x62-y18_62 <=1 
C587: x19+x20 <=1 
C588: x19+x21 <=1 
C589: x19+x22-y19_22 <=1 
C590: x19+x23-y19_23 <=1 
C591: x19+x24 <=1 
C592: x19+x25-y19_25 <=1 
C593: x19+x26-y19_26 <=1 
C594: x19+x27 <=1 
C595: x19+x28 <=1 
C596: x19+x29-y19_29 <=1 
C597: x19+x31 <=1 
C598: x19+x32-y19_32 <=1 
C599: x19+x35 <=1 
C600: x19+x36 <=1 
C601: x19+x37-y19_37 <=1 
C602: x19+x38-y19_38 <=1 
C603: x19+x39-y19_39 <=1 
C604: x19+x40 <=1 
C605: x19+x41-y19_41 <=1 
C606: x19+x43 <=1 
C607: x19+x44-y19_44 <=1 
C608: x19+x46 <=1 
C609: x19+x47 <=1 
C610: x19+x49 <=1 
C611: x19+x52 <=1 
C612: x19+x53 <=1 
C613: x19+x55 <=1 
C614: x19+x58 <=1 
C615: x19+x59 <=1 
C616: x19+x60 <=1 
C617: x19+x61-y19_61 <=1 
C618: x19+x62-y19_62 <=1 
C619: x20+x22 <=1 
C620: x20+x23 <=1 
C621: x20+x25-y20_25 <=1 
C622: x20+x26 <=1 
C623: x20+x28 <=1 
C624: x20+x29-y20_29 <=1 
C625: x20+x30-y20_30 <=1 
C626: x20+x31-y20_31 <=1 
C627: x20+x33 <=1 
C628: x20+x34 <=1 
C629: x20+x37 <=1 
C630: x20+x39 <=1 
C631: x20+x41-y20_41 <=1 
C632: x20+x42 <=1 
C633: x20+x45-y20_45 <=1 
C634: x20+x48-y20_48 <=1 
C635: x20+x49-y20_49 <=1 
C636: x20+x50-y20_50 <=1 
C637: x20+x52 <=1 
C638: x20+x53-y20_53 <=1 
C639: x20+x54-y20_54 <=1 
C640: x20+x55 <=1 
C641: x20+x57-y20_57 <=1 
C642: x20+x58 <=1 
C643: x20+x61 <=1 
C644: x21+x25 <=1 
C645: x21+x26-y21_26 <=1 
C646: x21+x27 <=1 
C647: x21+x28 <=1 
C648: x21+x29-y21_29 <=1 
C649: x21+x30-y21_30 <=1 
C650: x21+x31-y21_31 <=1 
C651: x21+x35 <=1 
C652: x21+x40-y21_40 <=1 
C653: x21+x41 <=1 
C654: x21+x42 <=1 
C655: x21+x43 <=1 
C656: x21+x44-y21_44 <=1 
C657: x21+x46-y21_46 <=1 
C658: x21+x47 <=1 
C659: x21+x51 <=1 
C660: x21+x54 <=1 
C661: x21+x56 <=1 
C662: x21+x57-y21_57 <=1 
C663: x21+x58 <=1 
C664: x21+x60 <=1 
C665: x21+x61 <=1 
C666: x21+x62-y21_62 <=1 
C667: x22+x23 <=1 
C668: x22+x24-y22_24 <=1 
C669: x22+x25-y22_25 <=1 
C670: x22+x26 <=1 
C671: x22+x27 <=1 
C672: x22+x29-y22_29 <=1 
C673: x22+x31-y22_31 <=1 
C674: x22+x32-y22_32 <=1 
C675: x22+x34 <=1 
C676: x22+x35 <=1 
C677: x22+x36-y22_36 <=1 
C678: x22+x43 <=1 
C679: x22+x46 <=1 
C680: x22+x47-y22_47 <=1 
C681: x22+x48-y22_48 <=1 
C682: x22+x49 <=1 
C683: x22+x51-y22_51 <=1 
C684: x22+x55 <=1 
C685: x22+x56-y22_56 <=1 
C686: x22+x57-y22_57 <=1 
C687: x22+x58-y22_58 <=1 
C688: x22+x59-y22_59 <=1 
C689: x22+x61-y22_61 <=1 
C690: x23+x25-y23_25 <=1 
C691: x23+x27 <=1 
C692: x23+x28 <=1 
C693: x23+x30-y23_30 <=1 
C694: x23+x31-y23_31 <=1 
C695: x23+x32-y23_32 <=1 
C696: x23+x35 <=1 
C697: x23+x38 <=1 
C698: x23+x39-y23_39 <=1 
C699: x23+x40-y23_40 <=1 
C700: x23+x41-y23_41 <=1 
C701: x23+x43-y23_43 <=1 
C702: x23+x44 <=1 
C703: x23+x49 <=1 
C704: x23+x50-y23_50 <=1 
C705: x23+x52 <=1 
C706: x23+x53-y23_53 <=1 
C707: x23+x54 <=1 
C708: x23+x55 <=1 
C709: x23+x56-y23_56 <=1 
C710: x23+x61 <=1 
C711: x23+x62 <=1 
C712: x24+x25 <=1 
C713: x24+x26 <=1 
C714: x24+x27-y24_27 <=1 
C715: x24+x28 <=1 
C716: x24+x29-y24_29 <=1 
C717: x24+x30-y24_30 <=1 
C718: x24+x31 <=1 
C719: x24+x33 <=1 
C720: x24+x34 <=1 
C721: x24+x35-y24_35 <=1 
C722: x24+x36 <=1 
C723: x24+x37 <=1 
C724: x24+x38-y24_38 <=1 
C725: x24+x41 <=1 
C726: x24+x42 <=1 
C727: x24+x43 <=1 
C728: x24+x44-y24_44 <=1 
C729: x24+x46-y24_46 <=1 
C730: x24+x47-y24_47 <=1 
C731: x24+x49 <=1 
C732: x24+x50-y24_50 <=1 
C733: x24+x51-y24_51 <=1 
C734: x24+x55-y24_55 <=1 
C735: x24+x58 <=1 
C736: x24+x59-y24_59 <=1 
C737: x24+x60-y24_60 <=1 
C738: x24+x62 <=1 
C739: x25+x26 <=1 
C740: x25+x27 <=1 
C741: x25+x29-y25_29 <=1 
C742: x25+x30 <=1 
C743: x25+x31-y25_31 <=1 
C744: x25+x32-y25_32 <=1 
C745: x25+x34 <=1 
C746: x25+x35 <=1 
C747: x25+x39 <=1 
C748: x25+x41 <=1 
C749: x25+x42 <=1 
C750: x25+x43 <=1 
C751: x25+x49-y25_49 <=1 
C752: x25+x50-y25_50 <=1 
C753: x25+x52-y25_52 <=1 
C754: x25+x53 <=1 
C755: x25+x54 <=1 
C756: x25+x55-y25_55 <=1 
C757: x25+x56 <=1 
C758: x25+x58 <=1 
C759: x25+x59-y25_59 <=1 
C760: x25+x60-y25_60 <=1 
C761: x25+x62 <=1 
C762: x26+x27 <=1 
C763: x26+x28 <=1 
C764: x26+x30-y26_30 <=1 
C765: x26+x33 <=1 
C766: x26+x34 <=1 
C767: x26+x36 <=1 
C768: x26+x37 <=1 
C769: x26+x38-y26_38 <=1 
C770: x26+x40 <=1 
C771: x26+x42-y26_42 <=1 
C772: x26+x43 <=1 
C773: x26+x44 <=1 
C774: x26+x45 <=1 
C775: x26+x48 <=1 
C776: x26+x49-y26_49 <=1 
C777: x26+x51 <=1 
C778: x26+x53-y26_53 <=1 
C779: x26+x54-y26_54 <=1 
C780: x26+x55-y26_55 <=1 
C781: x26+x56-y26_56 <=1 
C782: x26+x57-y26_57 <=1 
C783: x26+x59-y26_59 <=1 
C784: x26+x62 <=1 
C785: x27+x29 <=1 
C786: x27+x31-y27_31 <=1 
C787: x27+x33 <=1 
C788: x27+x35 <=1 
C789: x27+x36-y27_36 <=1 
C790: x27+x40 <=1 
C791: x27+x41 <=1 
C792: x27+x43 <=1 
C793: x27+x44 <=1 
C794: x27+x45 <=1 
C795: x27+x46-y27_46 <=1 
C796: x27+x48 <=1 
C797: x27+x49 <=1 
C798: x27+x52-y27_52 <=1 
C799: x27+x53 <=1 
C800: x27+x54-y27_54 <=1 
C801: x27+x55 <=1 
C802: x27+x57 <=1 
C803: x27+x60 <=1 
C804: x27+x62 <=1 
C805: x28+x29-y28_29 <=1 
C806: x28+x30-y28_30 <=1 
C807: x28+x32-y28_32 <=1 
C808: x28+x33-y28_33 <=1 
C809: x28+x35 <=1 
C810: x28+x36-y28_36 <=1 
C811: x28+x39-y28_39 <=1 
C812: x28+x40-y28_40 <=1 
C813: x28+x44-y28_44 <=1 
C814: x28+x47-y28_47 <=1 
C815: x28+x49 <=1 
C816: x28+x50-y28_50 <=1 
C817: x28+x51 <=1 
C818: x28+x52-y28_52 <=1 
C819: x28+x55 <=1 
C820: x28+x57 <=1 
C821: x28+x60-y28_60 <=1 
C822: x28+x62-y28_62 <=1 
C823: x29+x33 <=1 
C824: x29+x34 <=1 
C825: x29+x38 <=1 
C826: x29+x40-y29_40 <=1 
C827: x29+x42-y29_42 <=1 
C828: x29+x44-y29_44 <=1 
C829: x29+x47-y29_47 <=1 
C830: x29+x48-y29_48 <=1 
C831: x29+x52-y29_52 <=1 
C832: x29+x53 <=1 
C833: x29+x54-y29_54 <=1 
C834: x29+x55-y29_55 <=1 
C835: x30+x31 <=1 
C836: x30+x33-y30_33 <=1 
C837: x30+x34-y30_34 <=1 
C838: x30+x38 <=1 
C839: x30+x42-y30_42 <=1 
C840: x30+x43-y30_43 <=1 
C841: x30+x44-y30_44 <=1 
C842: x30+x46-y30_46 <=1 
C843: x30+x47-y30_47 <=1 
C844: x30+x48 <=1 
C845: x30+x50 <=1 
C846: x30+x53-y30_53 <=1 
C847: x30+x54 <=1 
C848: x30+x59-y30_59 <=1 
C849: x30+x61-y30_61 <=1 
C850: x30+x62-y30_62 <=1 
C851: x31+x33 <=1 
C852: x31+x34 <=1 
C853: x31+x35-y31_35 <=1 
C854: x31+x36 <=1 
C855: x31+x39 <=1 
C856: x31+x40 <=1 
C857: x31+x43 <=1 
C858: x31+x45-y31_45 <=1 
C859: x31+x48 <=1 
C860: x31+x49-y31_49 <=1 
C861: x31+x50 <=1 
C862: x31+x54 <=1 
C863: x31+x55 <=1 
C864: x31+x58-y31_58 <=1 
C865: x31+x60-y31_60 <=1 
C866: x31+x61-y31_61 <=1 
C867: x31+x62 <=1 
C868: x32+x33 <=1 
C869: x32+x34 <=1 
C870: x32+x35 <=1 
C871: x32+x36-y32_36 <=1 
C872: x32+x37-y32_37 <=1 
C873: x32+x38 <=1 
C874: x32+x40-y32_40 <=1 
C875: x32+x43 <=1 
C876: x32+x44-y32_44 <=1 
C877: x32+x47-y32_47 <=1 
C878: x32+x48-y32_48 <=1 
C879: x32+x49-y32_49 <=1 
C880: x32+x50 <=1 
C881: x32+x51 <=1 
C882: x32+x55 <=1 
C883: x32+x57-y32_57 <=1 
C884: x32+x58-y32_58 <=1 
C885: x32+x61-y32_61 <=1 
C886: x33+x34 <=1 
C887: x33+x38-y33_38 <=1 
C888: x33+x39 <=1 
C889: x33+x42 <=1 
C890: x33+x44 <=1 
C891: x33+x45 <=1 
C892: x33+x46-y33_46 <=1 
C893: x33+x52-y33_52 <=1 
C894: x33+x56-y33_56 <=1 
C895: x33+x58 <=1 
C896: x33+x61 <=1 
C897: x33+x62-y33_62 <=1 
C898: x34+x35-y34_35 <=1 
C899: x34+x36-y34_36 <=1 
C900: x34+x39 <=1 
C901: x34+x40-y34_40 <=1 
C902: x34+x41-y34_41 <=1 
C903: x34+x42-y34_42 <=1 
C904: x34+x43-y34_43 <=1 
C905: x34+x44-y34_44 <=1 
C906: x34+x45-y34_45 <=1 
C907: x34+x46 <=1 
C908: x34+x48-y34_48 <=1 
C909: x34+x49-y34_49 <=1 
C910: x34+x50 <=1 
C911: x34+x51 <=1 
C912: x34+x53-y34_53 <=1 
C913: x34+x54 <=1 
C914: x34+x55-y34_55 <=1 
C915: x34+x56 <=1 
C916: x34+x57-y34_57 <=1 
C917: x34+x59-y34_59 <=1 
C918: x34+x60-y34_60 <=1 
C919: x34+x61-y34_61 <=1 
C920: x35+x36 <=1 
C921: x35+x37 <=1 
C922: x35+x38 <=1 
C923: x35+x39 <=1 
C924: x35+x40 <=1 
C925: x35+x41-y35_41 <=1 
C926: x35+x42 <=1 
C927: x35+x44 <=1 
C928: x35+x45 <=1 
C929: x35+x48-y35_48 <=1 
C930: x35+x49-y35_49 <=1 
C931: x35+x50 <=1 
C932: x35+x51 <=1 
C933: x35+x53-y35_53 <=1 
C934: x35+x54 <=1 
C935: x35+x55-y35_55 <=1 
C936: x35+x60-y35_60 <=1 
C937: x35+x61 <=1 
C938: x35+x62-y35_62 <=1 
C939: x36+x37 <=1 
C940: x36+x41 <=1 
C941: x36+x42-y36_42 <=1 
C942: x36+x43 <=1 
C943: x36+x45-y36_45 <=1 
C944: x36+x47 <=1 
C945: x36+x48-y36_48 <=1 
C946: x36+x49-y36_49 <=1 
C947: x36+x50 <=1 
C948: x36+x51-y36_51 <=1 
C949: x36+x52-y36_52 <=1 
C950: x36+x54-y36_54 <=1 
C951: x36+x56-y36_56 <=1 
C952: x36+x57-y36_57 <=1 
C953: x36+x58-y36_58 <=1 
C954: x36+x59-y36_59 <=1 
C955: x36+x61 <=1 
C956: x36+x62 <=1 
C957: x37+x38-y37_38 <=1 
C958: x37+x39 <=1 
C959: x37+x40-y37_40 <=1 
C960: x37+x41-y37_41 <=1 
C961: x37+x42-y37_42 <=1 
C962: x37+x43 <=1 
C963: x37+x45-y37_45 <=1 
C964: x37+x46-y37_46 <=1 
C965: x37+x47-y37_47 <=1 
C966: x37+x50-y37_50 <=1 
C967: x37+x51-y37_51 <=1 
C968: x37+x52-y37_52 <=1 
C969: x37+x54-y37_54 <=1 
C970: x37+x56 <=1 
C971: x37+x57 <=1 
C972: x37+x58-y37_58 <=1 
C973: x37+x59 <=1 
C974: x37+x61-y37_61 <=1 
C975: x37+x62 <=1 
C976: x38+x39 <=1 
C977: x38+x41-y38_41 <=1 
C978: x38+x42 <=1 
C979: x38+x45-y38_45 <=1 
C980: x38+x47-y38_47 <=1 
C981: x38+x48-y38_48 <=1 
C982: x38+x50-y38_50 <=1 
C983: x38+x51 <=1 
C984: x38+x53 <=1 
C985: x38+x54-y38_54 <=1 
C986: x38+x55-y38_55 <=1 
C987: x38+x56-y38_56 <=1 
C988: x38+x59 <=1 
C989: x38+x62 <=1 
C990: x39+x40 <=1 
C991: x39+x42-y39_42 <=1 
C992: x39+x43-y39_43 <=1 
C993: x39+x45 <=1 
C994: x39+x46 <=1 
C995: x39+x47 <=1 
C996: x39+x48-y39_48 <=1 
C997: x39+x49-y39_49 <=1 
C998: x39+x51 <=1 
C999: x39+x53 <=1 
C1000: x39+x54 <=1 
C1001: x39+x57-y39_57 <=1 
C1002: x39+x58-y39_58 <=1 
C1003: x39+x61 <=1 
C1004: x40+x45 <=1 
C1005: x40+x46-y40_46 <=1 
C1006: x40+x48 <=1 
C1007: x40+x50-y40_50 <=1 
C1008: x40+x51 <=1 
C1009: x40+x54-y40_54 <=1 
C1010: x40+x55 <=1 
C1011: x40+x56-y40_56 <=1 
C1012: x40+x61-y40_61 <=1 
C1013: x41+x44 <=1 
C1014: x41+x45 <=1 
C1015: x41+x46 <=1 
C1016: x41+x48-y41_48 <=1 
C1017: x41+x49 <=1 
C1018: x41+x50-y41_50 <=1 
C1019: x41+x51 <=1 
C1020: x41+x55-y41_55 <=1 
C1021: x41+x56-y41_56 <=1 
C1022: x41+x57-y41_57 <=1 
C1023: x41+x58 <=1 
C1024: x41+x59 <=1 
C1025: x42+x44-y42_44 <=1 
C1026: x42+x45-y42_45 <=1 
C1027: x42+x49-y42_49 <=1 
C1028: x42+x50 <=1 
C1029: x42+x51 <=1 
C1030: x42+x52-y42_52 <=1 
C1031: x42+x53-y42_53 <=1 
C1032: x42+x54-y42_54 <=1 
C1033: x42+x56 <=1 
C1034: x42+x58 <=1 
C1035: x42+x59 <=1 
C1036: x42+x60-y42_60 <=1 
C1037: x42+x61 <=1 
C1038: x43+x45-y43_45 <=1 
C1039: x43+x46 <=1 
C1040: x43+x47 <=1 
C1041: x43+x48 <=1 
C1042: x43+x50-y43_50 <=1 
C1043: x43+x53 <=1 
C1044: x43+x54 <=1 
C1045: x43+x56-y43_56 <=1 
C1046: x43+x57 <=1 
C1047: x43+x58 <=1 
C1048: x43+x59-y43_59 <=1 
C1049: x43+x60-y43_60 <=1 
C1050: x44+x45 <=1 
C1051: x44+x47-y44_47 <=1 
C1052: x44+x49-y44_49 <=1 
C1053: x44+x51 <=1 
C1054: x44+x54-y44_54 <=1 
C1055: x44+x55-y44_55 <=1 
C1056: x44+x56-y44_56 <=1 
C1057: x44+x59 <=1 
C1058: x44+x60-y44_60 <=1 
C1059: x44+x61 <=1 
C1060: x44+x62-y44_62 <=1 
C1061: x45+x46-y45_46 <=1 
C1062: x45+x47-y45_47 <=1 
C1063: x45+x50-y45_50 <=1 
C1064: x45+x51 <=1 
C1065: x45+x52 <=1 
C1066: x45+x53-y45_53 <=1 
C1067: x45+x54 <=1 
C1068: x45+x55-y45_55 <=1 
C1069: x45+x57 <=1 
C1070: x45+x59-y45_59 <=1 
C1071: x45+x60 <=1 
C1072: x45+x62-y45_62 <=1 
C1073: x46+x48 <=1 
C1074: x46+x50-y46_50 <=1 
C1075: x46+x52-y46_52 <=1 
C1076: x46+x54-y46_54 <=1 
C1077: x46+x58-y46_58 <=1 
C1078: x46+x62 <=1 
C1079: x47+x50 <=1 
C1080: x47+x52-y47_52 <=1 
C1081: x47+x54 <=1 
C1082: x47+x57 <=1 
C1083: x47+x58-y47_58 <=1 
C1084: x47+x62-y47_62 <=1 
C1085: x48+x49-y48_49 <=1 
C1086: x48+x50 <=1 
C1087: x48+x52 <=1 
C1088: x48+x53 <=1 
C1089: x48+x55 <=1 
C1090: x48+x56-y48_56 <=1 
C1091: x48+x58-y48_58 <=1 
C1092: x48+x61 <=1 
C1093: x48+x62 <=1 
C1094: x49+x52 <=1 
C1095: x49+x53-y49_53 <=1 
C1096: x49+x54-y49_54 <=1 
C1097: x49+x56 <=1 
C1098: x49+x57 <=1 
C1099: x49+x60 <=1 
C1100: x49+x61 <=1 
C1101: x49+x62 <=1 
C1102: x50+x51-y50_51 <=1 
C1103: x50+x53-y50_53 <=1 
C1104: x50+x55-y50_55 <=1 
C1105: x50+x58-y50_58 <=1 
C1106: x50+x59 <=1 
C1107: x50+x60 <=1 
C1108: x50+x62-y50_62 <=1 
C1109: x51+x52 <=1 
C1110: x51+x53-y51_53 <=1 
C1111: x51+x54 <=1 
C1112: x51+x55 <=1 
C1113: x51+x57-y51_57 <=1 
C1114: x51+x59-y51_59 <=1 
C1115: x51+x60 <=1 
C1116: x51+x61 <=1 
C1117: x51+x62 <=1 
C1118: x52+x54-y52_54 <=1 
C1119: x52+x55-y52_55 <=1 
C1120: x52+x60 <=1 
C1121: x53+x55 <=1 
C1122: x53+x56 <=1 
C1123: x53+x58-y53_58 <=1 
C1124: x53+x59 <=1 
C1125: x53+x62-y53_62 <=1 
C1126: x54+x56-y54_56 <=1 
C1127: x54+x57 <=1 
C1128: x54+x58-y54_58 <=1 
C1129: x54+x59-y54_59 <=1 
C1130: x54+x61-y54_61 <=1 
C1131: x54+x62 <=1 
C1132: x55+x56 <=1 
C1133: x55+x58-y55_58 <=1 
C1134: x55+x59-y55_59 <=1 
C1135: x55+x60 <=1 
C1136: x55+x61 <=1 
C1137: x55+x62 <=1 
C1138: x56+x58-y56_58 <=1 
C1139: x56+x59-y56_59 <=1 
C1140: x56+x61-y56_61 <=1 
C1141: x57+x58 <=1 
C1142: x57+x59 <=1 
C1143: x57+x60 <=1 
C1144: x57+x61-y57_61 <=1 
C1145: x57+x62-y57_62 <=1 
C1146: x58+x59 <=1 
C1147: x59+x62 <=1 
C1148: x60+x62 <=1 

binary
x0
x1
x2
x3
x4
x5
x6
x7
x8
x9
x10
x11
x12
x13
x14
x15
x16
x17
x18
x19
x20
x21
x22
x23
x24
x25
x26
x27
x28
x29
x30
x31
x32
x33
x34
x35
x36
x37
x38
x39
x40
x41
x42
x43
x44
x45
x46
x47
x48
x49
x50
x51
x52
x53
x54
x55
x56
x57
x58
x59
x60
x61
x62
