problem_generation/data/GISP/train/er_n=63_m=1148_p=0.60_SET2_setparam=100.00_alpha=0.50_624.sol
objective value:                                 1272
x13                                                 1 	(obj:100)
x14                                                 1 	(obj:100)
x22                                                 1 	(obj:100)
x28                                                 1 	(obj:100)
x29                                                 1 	(obj:100)
x30                                                 1 	(obj:100)
x32                                                 1 	(obj:100)
x37                                                 1 	(obj:100)
x40                                                 1 	(obj:100)
x41                                                 1 	(obj:100)
x42                                                 1 	(obj:100)
x47                                                 1 	(obj:100)
x60                                                 1 	(obj:100)
y22_32                                              1 	(obj:-1)
y14_37                                              1 	(obj:-1)
y29_40                                              1 	(obj:-1)
y14_32                                              1 	(obj:-1)
y13_32                                              1 	(obj:-1)
y28_29                                              1 	(obj:-1)
y28_47                                              1 	(obj:-1)
y32_40                                              1 	(obj:-1)
y37_47                                              1 	(obj:-1)
y37_42                                              1 	(obj:-1)
y28_60                                              1 	(obj:-1)
y29_47                                              1 	(obj:-1)
y28_32                                              1 	(obj:-1)
y29_42                                              1 	(obj:-1)
y32_47                                              1 	(obj:-1)
y28_40                                              1 	(obj:-1)
y42_60                                              1 	(obj:-1)
y32_37                                              1 	(obj:-1)
y13_42                                              1 	(obj:-1)
y28_30                                              1 	(obj:-1)
y13_28                                              1 	(obj:-1)
y13_37                                              1 	(obj:-1)
y30_47                                              1 	(obj:-1)
y30_42                                              1 	(obj:-1)
y37_41                                              1 	(obj:-1)
y22_29                                              1 	(obj:-1)
y22_47                                              1 	(obj:-1)
y37_40                                              1 	(obj:-1)
